32 4 424
26 21 24 23 19 30 12 28 31 17 27 28 19 15 14 26 31 24 23 16 34 21 20 30 30 22 22 22 13 32 22 19 
3 3 9 0 0 1 2 7 2 3 9 4 5 1 2 5 6 3 2 4 7 8 4 6 6 5 7 7 1 5 0 7 
6 5 1 9 6 8 0 5 8 6 3 7 0 0 0 5 5 7 5 4 8 4 9 8 6 0 1 2 0 9 9 1 
7 6 2 3 2 7 2 9 9 1 1 8 3 6 6 4 6 4 4 3 6 3 2 9 4 4 7 2 6 4 1 1 
5 2 7 6 6 9 3 2 7 2 9 4 6 3 1 7 9 5 7 0 8 1 0 2 9 8 2 6 1 9 7 5 
80 80 80 80 
